NAME: ACTUAL_TOURS/amz1675
TYPE: TOUR
COMMENT: RouteID_b4517030-8889-4c19-9095-aad542bbdc44
DIMENSION: 153
TOUR_SECTION
107
53
105
77
149
116
103
130
120
113
4
128
100
51
121
140
94
133
37
147
43
99
135
110
18
87
15
75
81
142
30
111
76
106
108
38
46
117
101
67
22
84
150
144
127
20
50
16
151
55
6
58
152
96
97
109
63
21
39
98
61
137
93
49
47
9
12
7
141
66
126
115
35
71
64
118
40
73
132
136
89
26
82
28
10
119
112
62
95
48
114
92
57
138
78
68
83
59
34
79
70
52
85
74
134
25
125
41
60
65
33
86
54
69
11
139
44
145
90
45
129
23
31
131
14
91
104
29
3
8
123
1
72
19
17
124
143
5
148
56
122
88
32
42
146
24
80
27
153
102
2
13
36
-1
EOF
